<number of tasks>
70

<cycle time>
234

<task times>
1 17
2 66
3 54
4 52
5 6
6 88
7 21
8 128
9 68
10 70
11 85
12 21
13 134
14 135
15 94
16 90
17 50
18 143
19 19
20 54
21 50
22 40
23 73
24 12
25 152
26 42
27 45
28 74
29 26
30 11
31 31
32 50
33 102
34 46
35 35
36 40
37 2
38 1
39 3
40 13
41 16
42 25
43 21
44 43
45 30
46 83
47 89
48 56
49 59
50 43
51 11
52 26
53 44
54 121
55 38
56 68
57 22
58 7
59 16
60 32
61 25
62 27
63 156
64 28
65 15
66 26
67 18
68 72
69 23
70 27

<precedence relations>
1,2
1,41
1,69
1,70
2,3
3,4
3,68
4,6
4,7
5,6
5,24
5,30
6,8
7,8
8,12
9,10
10,11
11,12
12,13
12,14
13,23
14,23
15,16
16,17
16,18
17,19
18,19
19,20
19,22
19,57
20,21
21,23
22,23
23,25
23,31
23,33
24,25
25,26
25,27
25,28
25,29
26,35
27,35
28,35
29,35
30,31
31,32
32,35
33,34
34,35
35,36
35,44
35,48
35,51
35,53
35,56
35,60
35,61
35,62
36,37
37,38
38,39
39,40
40,42
41,42
42,43
43,50
44,45
45,46
46,47
47,50
48,49
49,50
51,52
52,54
53,54
54,55
57,58
58,59
59,60
61,65
62,63
63,64
64,65
64,66
64,67

<setup times forward>
1,9:15
1,10:5
1,11:4
1,15:15
1,16:5
1,17:8
1,18:4
1,19:8
1,21:13
1,57:11
1,58:11
1,59:11
1,69:5
1,70:5
2,9:15
2,10:5
2,11:4
2,15:15
2,16:5
2,17:8
2,18:4
2,19:8
2,21:13
2,57:11
2,58:11
2,59:11
2,69:5
2,70:5
3,9:15
3,10:5
3,11:4
3,15:15
3,16:5
3,17:8
3,18:4
3,19:8
3,21:13
3,57:11
3,58:11
3,59:11
3,68:15
3,69:5
3,70:5
4,6:5
4,7:5
4,9:15
4,10:5
4,11:4
4,15:15
4,16:5
4,17:8
4,18:4
4,19:8
4,21:13
4,57:11
4,58:11
4,59:11
4,68:15
4,69:5
4,70:5
5,6:5
5,7:5
5,9:15
5,10:5
5,11:4
5,15:15
5,16:5
5,17:8
5,18:4
5,19:8
5,21:13
5,57:11
5,58:11
5,59:11
5,68:15
5,69:5
5,70:5
6,8:10
6,9:20
6,10:10
6,11:9
6,15:20
6,17:3
6,18:9
6,19:3
6,20:5
6,21:8
6,22:5
6,24:5
6,30:5
6,41:5
6,57:16
6,58:16
6,59:16
6,68:20
6,69:10
7,5:5
7,8:10
7,9:20
7,10:10
7,11:9
7,15:20
7,17:3
7,18:9
7,19:3
7,20:5
7,21:8
7,22:5
7,24:5
7,30:5
7,41:5
7,57:16
7,58:16
7,59:16
7,68:20
7,69:10
8,9:10
8,11:1
8,12:13
8,15:10
8,16:10
8,17:13
8,18:1
8,19:13
8,20:5
8,21:18
8,22:5
8,24:5
8,30:5
8,41:5
8,57:6
8,58:6
8,59:6
8,68:10
8,70:10
9,1:15
9,2:15
9,3:15
9,4:15
9,5:15
9,6:20
9,7:20
9,8:10
9,10:10
9,16:20
9,17:23
9,18:11
9,19:23
9,20:15
9,21:28
9,22:15
9,24:15
9,30:15
9,41:15
9,57:4
9,58:4
9,59:4
9,69:10
9,70:20
10,1:5
10,2:5
10,3:5
10,4:5
10,5:5
10,6:10
10,7:10
10,11:1
10,15:10
10,16:10
10,17:13
10,18:1
10,19:13
10,20:5
10,21:18
10,22:5
10,24:5
10,30:5
10,41:5
10,57:6
10,58:6
10,59:6
10,68:10
10,70:10
11,1:4
11,2:4
11,3:4
11,4:4
11,5:4
11,6:9
11,7:9
11,8:1
11,12:12
11,15:11
11,16:9
11,17:12
11,19:12
11,20:4
11,21:17
11,22:4
11,24:4
11,30:4
11,41:4
11,57:7
11,58:7
11,59:7
11,68:11
11,69:1
11,70:9
12,13:8
12,15:23
12,16:3
12,18:12
12,20:8
12,21:5
12,22:8
12,24:8
12,30:8
12,41:8
12,57:19
12,58:19
12,59:19
12,68:23
12,69:13
12,70:3
13,14:8
13,15:15
13,16:5
13,17:8
13,18:4
13,19:8
13,21:13
13,23:13
13,57:11
13,58:11
13,59:11
13,68:15
13,69:5
13,70:5
14,13:8
14,15:23
14,16:3
14,18:12
14,20:8
14,21:5
14,22:8
14,23:5
14,24:8
14,30:8
14,41:8
14,57:19
14,58:19
14,59:19
14,68:23
14,69:13
14,70:3
15,1:15
15,2:15
15,3:15
15,4:15
15,5:15
15,6:20
15,7:20
15,8:10
15,10:10
15,11:11
15,12:23
15,13:15
15,14:23
15,16:20
15,24:15
15,30:15
15,41:15
15,69:10
15,70:20
16,1:5
16,2:5
16,3:5
16,4:5
16,5:5
16,8:10
16,9:20
16,10:10
16,11:9
16,12:3
16,13:5
16,14:3
16,17:3
16,18:9
16,24:5
16,30:5
16,41:5
16,68:20
16,69:10
17,1:8
17,2:8
17,3:8
17,4:8
17,5:8
17,6:3
17,7:3
17,8:13
17,9:23
17,10:13
17,11:12
17,13:8
17,18:12
17,24:8
17,30:8
17,41:8
17,68:23
17,69:13
17,70:3
18,1:4
18,2:4
18,3:4
18,4:4
18,5:4
18,6:9
18,7:9
18,8:1
18,9:11
18,10:1
18,12:12
18,13:4
18,14:12
18,17:12
18,19:12
18,24:4
18,30:4
18,41:4
18,68:11
18,69:1
18,70:9
19,1:8
19,2:8
19,3:8
19,4:8
19,5:8
19,6:3
19,7:3
19,8:13
19,9:23
19,10:13
19,11:12
19,13:8
19,20:8
19,22:8
19,24:8
19,30:8
19,41:8
19,57:19
19,68:23
19,69:13
19,70:3
20,6:5
20,7:5
20,8:5
20,9:15
20,10:5
20,11:4
20,12:8
20,14:8
20,21:13
20,57:11
20,58:11
20,59:11
20,68:15
20,69:5
20,70:5
21,1:13
21,2:13
21,3:13
21,4:13
21,5:13
21,6:8
21,7:8
21,8:18
21,9:28
21,10:18
21,11:17
21,12:5
21,13:13
21,14:5
21,22:13
21,24:13
21,30:13
21,41:13
21,57:24
21,58:24
21,59:24
21,68:28
21,69:18
21,70:8
22,6:5
22,7:5
22,8:5
22,9:15
22,10:5
22,11:4
22,12:8
22,14:8
22,21:13
22,23:13
22,57:11
22,58:11
22,59:11
22,68:15
22,69:5
22,70:5
23,24:13
23,25:21
23,30:13
23,31:21
23,41:13
23,57:24
23,58:24
23,59:24
23,68:28
23,69:18
23,70:8
24,6:5
24,7:5
24,8:5
24,9:15
24,10:5
24,11:4
24,12:8
24,14:8
24,15:15
24,16:5
24,17:8
24,18:4
24,19:8
24,21:13
24,23:13
24,25:8
24,31:8
24,32:8
24,33:13
24,34:5
24,57:11
24,58:11
24,59:11
24,68:15
24,69:5
24,70:5
25,26:13
25,27:13
25,28:13
25,29:13
25,30:8
25,33:21
25,34:13
25,41:8
25,57:3
25,58:3
25,59:3
25,68:7
25,69:3
25,70:13
26,30:5
26,31:13
26,32:13
26,33:8
26,35:12
26,41:5
26,57:16
26,58:16
26,59:16
26,68:20
26,69:10
27,30:5
27,31:13
27,32:13
27,33:8
27,35:12
27,41:5
27,57:16
27,58:16
27,59:16
27,68:20
27,69:10
28,30:5
28,31:13
28,32:13
28,33:8
28,35:12
28,41:5
28,57:16
28,58:16
28,59:16
28,68:20
28,69:10
29,30:5
29,31:13
29,32:13
29,33:8
29,35:12
29,41:5
29,57:16
29,58:16
29,59:16
29,68:20
29,69:10
30,6:5
30,7:5
30,8:5
30,9:15
30,10:5
30,11:4
30,12:8
30,14:8
30,15:15
30,16:5
30,17:8
30,18:4
30,19:8
30,21:13
30,23:13
30,25:8
30,26:5
30,27:5
30,28:5
30,29:5
30,31:8
30,33:13
30,34:5
30,57:11
30,58:11
30,59:11
30,68:15
30,69:5
30,70:5
31,24:8
31,26:13
31,27:13
31,28:13
31,29:13
31,33:21
31,34:13
31,41:8
31,57:3
31,58:3
31,59:3
31,68:7
31,69:3
31,70:13
32,24:8
32,26:13
32,27:13
32,28:13
32,29:13
32,33:21
32,34:13
32,35:25
32,41:8
32,57:3
32,58:3
32,59:3
32,68:7
32,69:3
32,70:13
33,24:13
33,25:21
33,26:8
33,27:8
33,28:8
33,29:8
33,30:13
33,31:21
33,32:21
33,34:8
33,41:13
33,57:24
33,58:24
33,59:24
33,68:28
33,69:18
33,70:8
34,24:5
34,25:13
34,30:5
34,31:13
34,32:13
34,35:12
34,41:5
34,57:16
34,58:16
34,59:16
34,68:20
34,69:10
35,36:21
35,41:17
35,48:21
35,53:15
35,56:28
35,57:28
35,58:28
35,59:28
35,60:28
35,61:28
35,68:32
35,69:22
35,70:12
36,41:4
36,44:21
36,45:21
36,46:21
36,49:7
36,51:21
36,52:6
36,53:6
36,54:21
36,55:21
36,56:7
36,57:7
36,58:7
36,59:7
36,60:7
36,61:7
36,62:21
36,63:6
36,65:23
36,66:23
36,67:23
36,68:11
36,69:1
36,70:9
37,41:4
37,44:21
37,45:21
37,46:21
37,49:7
37,51:21
37,52:6
37,53:6
37,54:21
37,55:21
37,56:7
37,57:7
37,58:7
37,59:7
37,60:7
37,61:7
37,62:21
37,63:6
37,65:23
37,66:23
37,67:23
37,68:11
37,69:1
37,70:9
38,41:4
38,44:21
38,45:21
38,46:21
38,49:7
38,51:21
38,52:6
38,53:6
38,54:21
38,55:21
38,56:7
38,57:7
38,58:7
38,59:7
38,60:7
38,61:7
38,62:21
38,63:6
38,65:23
38,66:23
38,67:23
38,68:11
38,69:1
38,70:9
39,41:4
39,44:21
39,45:21
39,46:21
39,49:7
39,51:21
39,52:6
39,53:6
39,54:21
39,55:21
39,56:7
39,57:7
39,58:7
39,59:7
39,60:7
39,61:7
39,62:21
39,63:6
39,65:23
39,66:23
39,67:23
39,68:11
39,69:1
39,70:9
40,41:4
40,42:23
40,44:21
40,45:21
40,46:21
40,49:7
40,51:21
40,52:6
40,53:6
40,54:21
40,55:21
40,56:7
40,57:7
40,58:7
40,59:7
40,60:7
40,61:7
40,62:21
40,63:6
40,65:23
40,66:23
40,67:23
40,68:11
40,69:1
40,70:9
41,6:5
41,7:5
41,8:5
41,9:15
41,10:5
41,11:4
41,12:8
41,14:8
41,15:15
41,16:5
41,17:8
41,18:4
41,19:8
41,21:13
41,23:13
41,25:8
41,26:5
41,27:5
41,28:5
41,29:5
41,31:8
41,32:8
41,33:13
41,34:5
41,35:17
41,36:4
41,37:4
41,38:4
41,39:4
41,40:4
41,42:19
41,44:17
41,45:17
41,46:17
41,47:4
41,48:4
41,49:11
41,51:17
41,52:2
41,53:2
41,54:17
41,55:17
41,56:11
41,57:11
41,58:11
41,59:11
41,60:11
41,61:11
41,62:17
41,63:2
41,64:4
41,65:19
41,66:19
41,67:19
41,68:15
41,69:5
41,70:5
42,43:2
42,44:2
42,45:2
42,46:2
42,47:23
42,48:23
42,49:30
42,51:2
42,52:17
42,53:17
42,54:2
42,55:2
42,56:30
42,57:30
42,58:30
42,59:30
42,60:30
42,61:30
42,62:2
42,63:17
42,64:23
42,68:34
42,69:24
42,70:14
43,47:21
43,48:21
43,49:28
43,52:15
43,53:15
43,56:28
43,57:28
43,58:28
43,59:28
43,60:28
43,61:28
43,63:15
43,64:21
43,65:2
43,66:2
43,67:2
43,68:32
43,69:22
43,70:12
44,36:21
44,37:21
44,38:21
44,39:21
44,40:21
44,41:17
44,42:2
44,48:21
44,49:28
44,52:15
44,53:15
44,56:28
44,57:28
44,58:28
44,59:28
44,60:28
44,61:28
44,63:15
44,64:21
44,65:2
44,66:2
44,67:2
44,68:32
44,69:22
44,70:12
45,36:21
45,37:21
45,38:21
45,39:21
45,40:21
45,41:17
45,42:2
45,48:21
45,49:28
45,52:15
45,53:15
45,56:28
45,57:28
45,58:28
45,59:28
45,60:28
45,61:28
45,63:15
45,64:21
45,65:2
45,66:2
45,67:2
45,68:32
45,69:22
45,70:12
46,36:21
46,37:21
46,38:21
46,39:21
46,40:21
46,41:17
46,42:2
46,47:21
46,48:21
46,49:28
46,52:15
46,53:15
46,56:28
46,57:28
46,58:28
46,59:28
46,60:28
46,61:28
46,63:15
46,64:21
46,65:2
46,66:2
46,67:2
46,68:32
46,69:22
46,70:12
47,41:4
47,42:23
47,43:21
47,49:7
47,50:21
47,51:21
47,52:6
47,53:6
47,54:21
47,55:21
47,56:7
47,57:7
47,58:7
47,59:7
47,60:7
47,61:7
47,62:21
47,63:6
47,65:23
47,66:23
47,67:23
47,68:11
47,69:1
47,70:9
48,41:4
48,42:23
48,43:21
48,44:21
48,45:21
48,46:21
48,49:7
48,51:21
48,52:6
48,53:6
48,54:21
48,55:21
48,56:7
48,57:7
48,58:7
48,59:7
48,60:7
48,61:7
48,62:21
48,63:6
48,65:23
48,66:23
48,67:23
48,68:11
48,69:1
48,70:9
49,36:7
49,37:7
49,38:7
49,39:7
49,40:7
49,41:11
49,42:30
49,43:28
49,44:28
49,45:28
49,46:28
49,47:7
49,50:28
49,51:28
49,52:13
49,53:13
49,54:28
49,55:28
49,62:28
49,63:13
49,64:7
49,65:30
49,66:30
49,67:30
49,68:4
49,69:6
49,70:16
50,52:15
50,53:15
50,56:28
50,57:28
50,58:28
50,59:28
50,60:28
50,61:28
50,63:15
50,64:21
50,65:2
50,66:2
50,67:2
50,68:32
50,69:22
50,70:12
51,36:21
51,37:21
51,38:21
51,39:21
51,40:21
51,41:17
51,42:2
51,47:21
51,48:21
51,49:28
51,52:15
51,53:15
51,56:28
51,57:28
51,58:28
51,59:28
51,60:28
51,61:28
51,63:15
51,64:21
51,65:2
51,66:2
51,67:2
51,68:32
51,69:22
51,70:12
52,36:6
52,37:6
52,38:6
52,39:6
52,40:6
52,41:2
52,42:17
52,43:15
52,44:15
52,45:15
52,46:15
52,47:6
52,48:6
52,49:13
52,50:15
52,54:15
52,56:13
52,57:13
52,58:13
52,59:13
52,60:13
52,61:13
52,62:15
52,64:6
52,65:17
52,66:17
52,67:17
52,68:17
52,69:7
52,70:3
53,36:6
53,37:6
53,38:6
53,39:6
53,40:6
53,41:2
53,42:17
53,43:15
53,44:15
53,45:15
53,46:15
53,47:6
53,48:6
53,49:13
53,50:15
53,51:15
53,54:15
53,56:13
53,57:13
53,58:13
53,59:13
53,60:13
53,61:13
53,62:15
53,64:6
53,65:17
53,66:17
53,67:17
53,68:17
53,69:7
53,70:3
54,36:21
54,37:21
54,38:21
54,39:21
54,40:21
54,41:17
54,42:2
54,47:21
54,48:21
54,49:28
54,56:28
54,57:28
54,58:28
54,59:28
54,60:28
54,61:28
54,63:15
54,64:21
54,65:2
54,66:2
54,67:2
54,68:32
54,69:22
54,70:12
55,36:21
55,37:21
55,38:21
55,39:21
55,40:21
55,41:17
55,42:2
55,47:21
55,48:21
55,49:28
55,56:28
55,57:28
55,58:28
55,59:28
55,60:28
55,61:28
55,63:15
55,64:21
55,65:2
55,66:2
55,67:2
55,68:32
55,69:22
55,70:12
56,36:7
56,37:7
56,38:7
56,39:7
56,40:7
56,41:11
56,42:30
56,43:28
56,44:28
56,45:28
56,46:28
56,47:7
56,48:7
56,50:28
56,51:28
56,52:13
56,53:13
56,54:28
56,55:28
56,62:28
56,63:13
56,64:7
56,65:30
56,66:30
56,67:30
56,68:4
56,69:6
56,70:16
57,1:11
57,2:11
57,3:11
57,4:11
57,5:11
57,6:16
57,7:16
57,8:6
57,9:4
57,10:6
57,11:7
57,12:19
57,13:11
57,14:19
57,20:11
57,21:24
57,22:11
57,23:24
57,24:11
57,25:3
57,26:16
57,27:16
57,28:16
57,29:16
57,30:11
57,31:3
57,32:3
57,33:24
57,34:16
57,35:28
57,36:7
57,37:7
57,38:7
57,39:7
57,40:7
57,41:11
57,42:30
57,43:28
57,44:28
57,45:28
57,46:28
57,47:7
57,48:7
57,50:28
57,51:28
57,52:13
57,53:13
57,54:28
57,55:28
57,62:28
57,63:13
57,64:7
57,65:30
57,66:30
57,67:30
57,68:4
57,69:6
57,70:16
58,1:11
58,2:11
58,3:11
58,4:11
58,5:11
58,6:16
58,7:16
58,8:6
58,9:4
58,10:6
58,11:7
58,12:19
58,13:11
58,14:19
58,20:11
58,21:24
58,22:11
58,23:24
58,24:11
58,25:3
58,26:16
58,27:16
58,28:16
58,29:16
58,30:11
58,31:3
58,32:3
58,33:24
58,34:16
58,35:28
58,36:7
58,37:7
58,38:7
58,39:7
58,40:7
58,41:11
58,42:30
58,43:28
58,44:28
58,45:28
58,46:28
58,47:7
58,48:7
58,50:28
58,51:28
58,52:13
58,53:13
58,54:28
58,55:28
58,62:28
58,63:13
58,64:7
58,65:30
58,66:30
58,67:30
58,68:4
58,69:6
58,70:16
59,1:11
59,2:11
59,3:11
59,4:11
59,5:11
59,6:16
59,7:16
59,8:6
59,9:4
59,10:6
59,11:7
59,12:19
59,13:11
59,14:19
59,20:11
59,21:24
59,22:11
59,23:24
59,24:11
59,25:3
59,26:16
59,27:16
59,28:16
59,29:16
59,30:11
59,31:3
59,32:3
59,33:24
59,34:16
59,35:28
59,36:7
59,37:7
59,38:7
59,39:7
59,40:7
59,41:11
59,42:30
59,43:28
59,44:28
59,45:28
59,46:28
59,47:7
59,48:7
59,50:28
59,51:28
59,52:13
59,53:13
59,54:28
59,55:28
59,62:28
59,63:13
59,64:7
59,65:30
59,66:30
59,67:30
59,68:4
59,69:6
59,70:16
60,36:7
60,37:7
60,38:7
60,39:7
60,40:7
60,41:11
60,42:30
60,43:28
60,44:28
60,45:28
60,46:28
60,47:7
60,48:7
60,50:28
60,51:28
60,52:13
60,53:13
60,54:28
60,55:28
60,62:28
60,63:13
60,64:7
60,65:30
60,66:30
60,67:30
60,68:4
60,69:6
60,70:16
61,36:7
61,37:7
61,38:7
61,39:7
61,40:7
61,41:11
61,42:30
61,43:28
61,44:28
61,45:28
61,46:28
61,47:7
61,48:7
61,50:28
61,51:28
61,52:13
61,53:13
61,54:28
61,55:28
61,62:28
61,63:13
61,64:7
61,65:30
61,66:30
61,67:30
61,68:4
61,69:6
61,70:16
62,36:21
62,37:21
62,38:21
62,39:21
62,40:21
62,41:17
62,42:2
62,47:21
62,48:21
62,49:28
62,52:15
62,53:15
62,56:28
62,57:28
62,58:28
62,59:28
62,60:28
62,61:28
62,63:15
62,68:32
62,69:22
62,70:12
63,36:6
63,37:6
63,38:6
63,39:6
63,40:6
63,41:2
63,42:17
63,43:15
63,44:15
63,45:15
63,46:15
63,47:6
63,48:6
63,49:13
63,50:15
63,51:15
63,54:15
63,55:15
63,56:13
63,57:13
63,58:13
63,59:13
63,60:13
63,61:13
63,64:6
63,68:17
63,69:7
63,70:3
64,41:4
64,42:23
64,43:21
64,44:21
64,45:21
64,46:21
64,49:7
64,50:21
64,51:21
64,52:6
64,53:6
64,54:21
64,55:21
64,56:7
64,57:7
64,58:7
64,59:7
64,60:7
64,61:7
64,65:23
64,66:23
64,67:23
64,68:11
64,69:1
64,70:9
65,36:23
65,37:23
65,38:23
65,39:23
65,40:23
65,41:19
65,43:2
65,44:2
65,45:2
65,46:2
65,47:23
65,48:23
65,49:30
65,50:2
65,51:2
65,52:17
65,53:17
65,54:2
65,55:2
65,56:30
65,57:30
65,58:30
65,59:30
65,60:30
65,68:34
65,69:24
65,70:14
66,36:23
66,37:23
66,38:23
66,39:23
66,40:23
66,41:19
66,43:2
66,44:2
66,45:2
66,46:2
66,47:23
66,48:23
66,49:30
66,50:2
66,51:2
66,52:17
66,53:17
66,54:2
66,55:2
66,56:30
66,57:30
66,58:30
66,59:30
66,60:30
66,61:30
66,68:34
66,69:24
66,70:14
67,36:23
67,37:23
67,38:23
67,39:23
67,40:23
67,41:19
67,43:2
67,44:2
67,45:2
67,46:2
67,47:23
67,48:23
67,49:30
67,50:2
67,51:2
67,52:17
67,53:17
67,54:2
67,55:2
67,56:30
67,57:30
67,58:30
67,59:30
67,60:30
67,61:30
67,68:34
67,69:24
67,70:14
68,4:15
68,5:15
68,6:20
68,7:20
68,8:10
68,10:10
68,11:11
68,12:23
68,13:15
68,14:23
68,16:20
68,17:23
68,18:11
68,19:23
68,20:15
68,21:28
68,22:15
68,23:28
68,24:15
68,25:7
68,26:20
68,27:20
68,28:20
68,29:20
68,30:15
68,31:7
68,32:7
68,33:28
68,34:20
68,35:32
68,36:11
68,37:11
68,38:11
68,39:11
68,40:11
68,41:15
68,42:34
68,43:32
68,44:32
68,45:32
68,46:32
68,47:11
68,48:11
68,49:4
68,50:32
68,51:32
68,52:17
68,53:17
68,54:32
68,55:32
68,56:4
68,57:4
68,58:4
68,59:4
68,60:4
68,61:4
68,62:32
68,63:17
68,64:11
68,65:34
68,66:34
68,67:34
68,69:10
68,70:20
69,2:5
69,3:5
69,4:5
69,5:5
69,6:10
69,7:10
69,9:10
69,11:1
69,12:13
69,13:5
69,14:13
69,15:10
69,16:10
69,17:13
69,18:1
69,19:13
69,20:5
69,21:18
69,22:5
69,23:18
69,24:5
69,25:3
69,26:10
69,27:10
69,28:10
69,29:10
69,30:5
69,31:3
69,32:3
69,33:18
69,34:10
69,35:22
69,36:1
69,37:1
69,38:1
69,39:1
69,40:1
69,41:5
69,42:24
69,43:22
69,44:22
69,45:22
69,46:22
69,47:1
69,48:1
69,49:6
69,50:22
69,51:22
69,52:7
69,53:7
69,54:22
69,55:22
69,56:6
69,57:6
69,58:6
69,59:6
69,60:6
69,61:6
69,62:22
69,63:7
69,64:1
69,65:24
69,66:24
69,67:24
69,68:10
69,70:10
70,2:5
70,3:5
70,4:5
70,5:5
70,8:10
70,9:20
70,10:10
70,11:9
70,12:3
70,13:5
70,14:3
70,15:20
70,17:3
70,18:9
70,19:3
70,20:5
70,21:8
70,22:5
70,23:8
70,24:5
70,25:13
70,30:5
70,31:13
70,32:13
70,33:8
70,35:12
70,36:9
70,37:9
70,38:9
70,39:9
70,40:9
70,41:5
70,42:14
70,43:12
70,44:12
70,45:12
70,46:12
70,47:9
70,48:9
70,49:16
70,50:12
70,51:12
70,52:3
70,53:3
70,54:12
70,55:12
70,56:16
70,57:16
70,58:16
70,59:16
70,60:16
70,61:16
70,62:12
70,63:3
70,64:9
70,65:14
70,66:14
70,67:14
70,68:20
70,69:10

<setup times backward>
1,16:5
1,17:8
1,19:8
1,21:13
2,16:5
2,17:8
2,19:8
2,21:13
2,70:5
3,16:5
3,17:8
3,19:8
3,21:13
3,70:5
4,16:5
4,17:8
4,19:8
4,21:13
4,70:5
5,7:5
5,16:5
5,17:8
5,19:8
5,21:13
5,70:5
6,17:3
6,19:3
6,21:8
7,17:3
7,19:3
7,21:8
8,1:5
8,2:5
8,3:5
8,4:5
8,5:5
8,6:10
8,7:10
8,11:1
8,16:10
8,17:13
8,18:1
8,19:13
8,20:5
8,21:18
8,22:5
8,24:5
8,30:5
8,41:5
8,70:10
9,1:15
9,2:15
9,3:15
9,4:15
9,5:15
9,6:20
9,7:20
9,8:10
9,16:20
9,17:23
9,18:11
9,19:23
9,20:15
9,21:28
9,22:15
9,24:15
9,30:15
9,41:15
9,57:4
9,58:4
9,59:4
9,69:10
9,70:20
10,1:5
10,2:5
10,3:5
10,4:5
10,5:5
10,6:10
10,7:10
10,16:10
10,17:13
10,18:1
10,19:13
10,20:5
10,21:18
10,22:5
10,24:5
10,30:5
10,41:5
10,70:10
11,1:4
11,2:4
11,3:4
11,4:4
11,5:4
11,6:9
11,7:9
11,16:9
11,17:12
11,19:12
11,20:4
11,21:17
11,22:4
11,24:4
11,30:4
11,41:4
11,70:9
12,21:5
13,6:5
13,7:5
13,12:8
13,14:8
13,16:5
13,17:8
13,19:8
13,21:13
13,70:5
14,21:5
15,1:15
15,2:15
15,3:15
15,4:15
15,5:15
15,6:20
15,7:20
15,8:10
15,10:10
15,11:11
15,12:23
15,13:15
15,14:23
15,24:15
15,30:15
15,41:15
15,69:10
15,70:20
16,12:3
16,14:3
18,1:4
18,2:4
18,3:4
18,4:4
18,5:4
18,6:9
18,7:9
18,12:12
18,13:4
18,14:12
18,16:9
18,17:12
18,24:4
18,30:4
18,41:4
18,70:9
20,6:5
20,7:5
20,12:8
20,14:8
20,16:5
20,17:8
20,19:8
20,70:5
22,6:5
22,7:5
22,12:8
22,14:8
22,16:5
22,17:8
22,19:8
22,21:13
22,70:5
24,6:5
24,7:5
24,12:8
24,14:8
24,16:5
24,17:8
24,19:8
24,21:13
24,23:13
24,33:13
24,34:5
24,70:5
25,1:8
25,2:8
25,3:8
25,4:8
25,5:8
25,6:13
25,7:13
25,8:3
25,10:3
25,11:4
25,12:16
25,13:8
25,14:16
25,16:13
25,17:16
25,18:4
25,19:16
25,20:8
25,21:21
25,22:8
25,23:21
25,24:8
25,30:8
25,33:21
25,34:13
25,41:8
25,69:3
25,70:13
26,12:3
26,14:3
26,17:3
26,19:3
26,21:8
26,23:8
26,33:8
27,12:3
27,14:3
27,17:3
27,19:3
27,21:8
27,23:8
27,33:8
28,12:3
28,14:3
28,17:3
28,19:3
28,21:8
28,23:8
28,33:8
29,12:3
29,14:3
29,17:3
29,19:3
29,21:8
29,23:8
29,33:8
30,6:5
30,7:5
30,12:8
30,14:8
30,16:5
30,17:8
30,19:8
30,21:13
30,23:13
30,26:5
30,27:5
30,28:5
30,29:5
30,33:13
30,34:5
30,70:5
31,1:8
31,2:8
31,3:8
31,4:8
31,5:8
31,6:13
31,7:13
31,8:3
31,10:3
31,11:4
31,12:16
31,13:8
31,14:16
31,16:13
31,17:16
31,18:4
31,19:16
31,20:8
31,21:21
31,22:8
31,23:21
31,24:8
31,26:13
31,27:13
31,28:13
31,29:13
31,30:8
31,33:21
31,34:13
31,41:8
31,69:3
31,70:13
32,1:8
32,2:8
32,3:8
32,4:8
32,5:8
32,6:13
32,7:13
32,8:3
32,10:3
32,11:4
32,12:16
32,13:8
32,14:16
32,16:13
32,17:16
32,18:4
32,19:16
32,20:8
32,21:21
32,22:8
32,23:21
32,24:8
32,26:13
32,27:13
32,28:13
32,29:13
32,30:8
32,33:21
32,34:13
32,41:8
32,69:3
32,70:13
34,12:3
34,14:3
34,17:3
34,19:3
34,21:8
34,23:8
34,33:8
36,1:4
36,2:4
36,3:4
36,4:4
36,5:4
36,6:9
36,7:9
36,12:12
36,13:4
36,14:12
36,16:9
36,17:12
36,19:12
36,20:4
36,21:17
36,22:4
36,23:17
36,24:4
36,26:9
36,27:9
36,28:9
36,29:9
36,30:4
36,33:17
36,34:9
36,35:21
36,41:4
36,44:21
36,45:21
36,46:21
36,51:21
36,52:6
36,53:6
36,54:21
36,55:21
36,62:21
36,63:6
36,65:23
36,66:23
36,67:23
36,70:9
37,1:4
37,2:4
37,3:4
37,4:4
37,5:4
37,6:9
37,7:9
37,12:12
37,13:4
37,14:12
37,16:9
37,17:12
37,19:12
37,20:4
37,21:17
37,22:4
37,23:17
37,24:4
37,26:9
37,27:9
37,28:9
37,29:9
37,30:4
37,33:17
37,34:9
37,35:21
37,41:4
37,44:21
37,45:21
37,46:21
37,51:21
37,52:6
37,53:6
37,54:21
37,55:21
37,62:21
37,63:6
37,65:23
37,66:23
37,67:23
37,70:9
38,1:4
38,2:4
38,3:4
38,4:4
38,5:4
38,6:9
38,7:9
38,12:12
38,13:4
38,14:12
38,16:9
38,17:12
38,19:12
38,20:4
38,21:17
38,22:4
38,23:17
38,24:4
38,26:9
38,27:9
38,28:9
38,29:9
38,30:4
38,33:17
38,34:9
38,35:21
38,41:4
38,44:21
38,45:21
38,46:21
38,51:21
38,52:6
38,53:6
38,54:21
38,55:21
38,62:21
38,63:6
38,65:23
38,66:23
38,67:23
38,70:9
39,1:4
39,2:4
39,3:4
39,4:4
39,5:4
39,6:9
39,7:9
39,12:12
39,13:4
39,14:12
39,16:9
39,17:12
39,19:12
39,20:4
39,21:17
39,22:4
39,23:17
39,24:4
39,26:9
39,27:9
39,28:9
39,29:9
39,30:4
39,33:17
39,34:9
39,35:21
39,41:4
39,44:21
39,45:21
39,46:21
39,51:21
39,52:6
39,53:6
39,54:21
39,55:21
39,62:21
39,63:6
39,65:23
39,66:23
39,67:23
39,70:9
40,1:4
40,2:4
40,3:4
40,4:4
40,5:4
40,6:9
40,7:9
40,12:12
40,13:4
40,14:12
40,16:9
40,17:12
40,19:12
40,20:4
40,21:17
40,22:4
40,23:17
40,24:4
40,26:9
40,27:9
40,28:9
40,29:9
40,30:4
40,33:17
40,34:9
40,35:21
40,41:4
40,44:21
40,45:21
40,46:21
40,51:21
40,52:6
40,53:6
40,54:21
40,55:21
40,62:21
40,63:6
40,65:23
40,66:23
40,67:23
40,70:9
41,6:5
41,7:5
41,12:8
41,14:8
41,16:5
41,17:8
41,19:8
41,21:13
41,23:13
41,26:5
41,27:5
41,28:5
41,29:5
41,33:13
41,34:5
41,35:17
41,44:17
41,45:17
41,46:17
41,51:17
41,52:2
41,53:2
41,54:17
41,55:17
41,62:17
41,63:2
41,65:19
41,66:19
41,67:19
41,70:5
43,42:2
43,65:2
43,66:2
43,67:2
44,42:2
44,65:2
44,66:2
44,67:2
45,42:2
45,65:2
45,66:2
45,67:2
46,42:2
46,65:2
46,66:2
46,67:2
47,1:4
47,2:4
47,3:4
47,4:4
47,5:4
47,6:9
47,7:9
47,12:12
47,13:4
47,14:12
47,16:9
47,17:12
47,19:12
47,20:4
47,21:17
47,22:4
47,23:17
47,24:4
47,26:9
47,27:9
47,28:9
47,29:9
47,30:4
47,33:17
47,34:9
47,35:21
47,41:4
47,42:23
47,43:21
47,44:21
47,45:21
47,46:21
47,51:21
47,52:6
47,53:6
47,54:21
47,55:21
47,62:21
47,63:6
47,65:23
47,66:23
47,67:23
47,70:9
48,1:4
48,2:4
48,3:4
48,4:4
48,5:4
48,6:9
48,7:9
48,12:12
48,13:4
48,14:12
48,16:9
48,17:12
48,19:12
48,20:4
48,21:17
48,22:4
48,23:17
48,24:4
48,26:9
48,27:9
48,28:9
48,29:9
48,30:4
48,33:17
48,34:9
48,35:21
48,41:4
48,42:23
48,43:21
48,44:21
48,45:21
48,46:21
48,51:21
48,52:6
48,53:6
48,54:21
48,55:21
48,62:21
48,63:6
48,65:23
48,66:23
48,67:23
48,70:9
49,1:11
49,2:11
49,3:11
49,4:11
49,5:11
49,6:16
49,7:16
49,8:6
49,10:6
49,11:7
49,12:19
49,13:11
49,14:19
49,16:16
49,17:19
49,18:7
49,19:19
49,20:11
49,21:24
49,22:11
49,23:24
49,24:11
49,25:3
49,26:16
49,27:16
49,28:16
49,29:16
49,30:11
49,31:3
49,32:3
49,33:24
49,34:16
49,35:28
49,36:7
49,37:7
49,38:7
49,39:7
49,40:7
49,41:11
49,42:30
49,43:28
49,44:28
49,45:28
49,46:28
49,47:7
49,48:7
49,51:28
49,52:13
49,53:13
49,54:28
49,55:28
49,62:28
49,63:13
49,64:7
49,65:30
49,66:30
49,67:30
49,69:6
49,70:16
50,42:2
50,65:2
50,66:2
50,67:2
51,42:2
51,65:2
51,66:2
51,67:2
52,6:3
52,7:3
52,12:6
52,14:6
52,16:3
52,17:6
52,19:6
52,21:11
52,23:11
52,26:3
52,27:3
52,28:3
52,29:3
52,33:11
52,34:3
52,35:15
52,42:17
52,43:15
52,44:15
52,45:15
52,46:15
52,50:15
52,51:15
52,62:15
52,65:17
52,66:17
52,67:17
52,70:3
53,6:3
53,7:3
53,12:6
53,14:6
53,16:3
53,17:6
53,19:6
53,21:11
53,23:11
53,26:3
53,27:3
53,28:3
53,29:3
53,33:11
53,34:3
53,35:15
53,42:17
53,43:15
53,44:15
53,45:15
53,46:15
53,50:15
53,51:15
53,62:15
53,65:17
53,66:17
53,67:17
53,70:3
54,42:2
54,65:2
54,66:2
54,67:2
55,42:2
55,65:2
55,66:2
55,67:2
56,1:11
56,2:11
56,3:11
56,4:11
56,5:11
56,6:16
56,7:16
56,8:6
56,10:6
56,11:7
56,12:19
56,13:11
56,14:19
56,16:16
56,17:19
56,18:7
56,19:19
56,20:11
56,21:24
56,22:11
56,23:24
56,24:11
56,25:3
56,26:16
56,27:16
56,28:16
56,29:16
56,30:11
56,31:3
56,32:3
56,33:24
56,34:16
56,35:28
56,36:7
56,37:7
56,38:7
56,39:7
56,40:7
56,41:11
56,42:30
56,43:28
56,44:28
56,45:28
56,46:28
56,47:7
56,48:7
56,50:28
56,51:28
56,52:13
56,53:13
56,54:28
56,55:28
56,62:28
56,63:13
56,64:7
56,65:30
56,66:30
56,67:30
56,69:6
56,70:16
57,1:11
57,2:11
57,3:11
57,4:11
57,5:11
57,6:16
57,7:16
57,8:6
57,10:6
57,11:7
57,12:19
57,13:11
57,14:19
57,16:16
57,17:19
57,18:7
57,19:19
57,20:11
57,21:24
57,22:11
57,23:24
57,24:11
57,25:3
57,26:16
57,27:16
57,28:16
57,29:16
57,30:11
57,31:3
57,32:3
57,33:24
57,34:16
57,35:28
57,36:7
57,37:7
57,38:7
57,39:7
57,40:7
57,41:11
57,42:30
57,43:28
57,44:28
57,45:28
57,46:28
57,47:7
57,48:7
57,50:28
57,51:28
57,52:13
57,53:13
57,54:28
57,55:28
57,62:28
57,63:13
57,64:7
57,65:30
57,66:30
57,67:30
57,69:6
57,70:16
58,1:11
58,2:11
58,3:11
58,4:11
58,5:11
58,6:16
58,7:16
58,8:6
58,10:6
58,11:7
58,12:19
58,13:11
58,14:19
58,16:16
58,17:19
58,18:7
58,19:19
58,20:11
58,21:24
58,22:11
58,23:24
58,24:11
58,25:3
58,26:16
58,27:16
58,28:16
58,29:16
58,30:11
58,31:3
58,32:3
58,33:24
58,34:16
58,35:28
58,36:7
58,37:7
58,38:7
58,39:7
58,40:7
58,41:11
58,42:30
58,43:28
58,44:28
58,45:28
58,46:28
58,47:7
58,48:7
58,50:28
58,51:28
58,52:13
58,53:13
58,54:28
58,55:28
58,62:28
58,63:13
58,64:7
58,65:30
58,66:30
58,67:30
58,69:6
58,70:16
59,1:11
59,2:11
59,3:11
59,4:11
59,5:11
59,6:16
59,7:16
59,8:6
59,10:6
59,11:7
59,12:19
59,13:11
59,14:19
59,16:16
59,17:19
59,18:7
59,19:19
59,20:11
59,21:24
59,22:11
59,23:24
59,24:11
59,25:3
59,26:16
59,27:16
59,28:16
59,29:16
59,30:11
59,31:3
59,32:3
59,33:24
59,34:16
59,35:28
59,36:7
59,37:7
59,38:7
59,39:7
59,40:7
59,41:11
59,42:30
59,43:28
59,44:28
59,45:28
59,46:28
59,47:7
59,48:7
59,50:28
59,51:28
59,52:13
59,53:13
59,54:28
59,55:28
59,62:28
59,63:13
59,64:7
59,65:30
59,66:30
59,67:30
59,69:6
59,70:16
60,1:11
60,2:11
60,3:11
60,4:11
60,5:11
60,6:16
60,7:16
60,8:6
60,10:6
60,11:7
60,12:19
60,13:11
60,14:19
60,16:16
60,17:19
60,18:7
60,19:19
60,20:11
60,21:24
60,22:11
60,23:24
60,24:11
60,25:3
60,26:16
60,27:16
60,28:16
60,29:16
60,30:11
60,31:3
60,32:3
60,33:24
60,34:16
60,35:28
60,36:7
60,37:7
60,38:7
60,39:7
60,40:7
60,41:11
60,42:30
60,43:28
60,44:28
60,45:28
60,46:28
60,47:7
60,48:7
60,50:28
60,51:28
60,52:13
60,53:13
60,54:28
60,55:28
60,62:28
60,63:13
60,64:7
60,65:30
60,66:30
60,67:30
60,69:6
60,70:16
61,1:11
61,2:11
61,3:11
61,4:11
61,5:11
61,6:16
61,7:16
61,8:6
61,10:6
61,11:7
61,12:19
61,13:11
61,14:19
61,16:16
61,17:19
61,18:7
61,19:19
61,20:11
61,21:24
61,22:11
61,23:24
61,24:11
61,25:3
61,26:16
61,27:16
61,28:16
61,29:16
61,30:11
61,31:3
61,32:3
61,33:24
61,34:16
61,35:28
61,36:7
61,37:7
61,38:7
61,39:7
61,40:7
61,41:11
61,42:30
61,43:28
61,44:28
61,45:28
61,46:28
61,47:7
61,48:7
61,50:28
61,51:28
61,52:13
61,53:13
61,54:28
61,55:28
61,62:28
61,63:13
61,64:7
61,66:30
61,67:30
61,69:6
61,70:16
62,42:2
63,6:3
63,7:3
63,12:6
63,14:6
63,16:3
63,17:6
63,19:6
63,21:11
63,23:11
63,26:3
63,27:3
63,28:3
63,29:3
63,33:11
63,34:3
63,35:15
63,42:17
63,43:15
63,44:15
63,45:15
63,46:15
63,50:15
63,51:15
63,54:15
63,55:15
63,62:15
63,70:3
64,1:4
64,2:4
64,3:4
64,4:4
64,5:4
64,6:9
64,7:9
64,12:12
64,13:4
64,14:12
64,16:9
64,17:12
64,19:12
64,20:4
64,21:17
64,22:4
64,23:17
64,24:4
64,26:9
64,27:9
64,28:9
64,29:9
64,30:4
64,33:17
64,34:9
64,35:21
64,41:4
64,42:23
64,43:21
64,44:21
64,45:21
64,46:21
64,50:21
64,51:21
64,52:6
64,53:6
64,54:21
64,55:21
64,62:21
64,63:6
64,70:9
68,1:15
68,2:15
68,3:15
68,4:15
68,5:15
68,6:20
68,7:20
68,8:10
68,10:10
68,11:11
68,12:23
68,13:15
68,14:23
68,16:20
68,17:23
68,18:11
68,19:23
68,20:15
68,21:28
68,22:15
68,23:28
68,24:15
68,25:7
68,26:20
68,27:20
68,28:20
68,29:20
68,30:15
68,31:7
68,32:7
68,33:28
68,34:20
68,35:32
68,36:11
68,37:11
68,38:11
68,39:11
68,40:11
68,41:15
68,42:34
68,43:32
68,44:32
68,45:32
68,46:32
68,47:11
68,48:11
68,49:4
68,50:32
68,51:32
68,52:17
68,53:17
68,54:32
68,55:32
68,56:4
68,57:4
68,58:4
68,59:4
68,60:4
68,61:4
68,62:32
68,63:17
68,64:11
68,65:34
68,66:34
68,67:34
68,69:10
68,70:20
69,1:5
69,2:5
69,3:5
69,4:5
69,5:5
69,6:10
69,7:10
69,11:1
69,12:13
69,13:5
69,14:13
69,16:10
69,17:13
69,18:1
69,19:13
69,20:5
69,21:18
69,22:5
69,23:18
69,24:5
69,26:10
69,27:10
69,28:10
69,29:10
69,30:5
69,33:18
69,34:10
69,35:22
69,36:1
69,37:1
69,38:1
69,39:1
69,40:1
69,41:5
69,42:24
69,43:22
69,44:22
69,45:22
69,46:22
69,47:1
69,48:1
69,50:22
69,51:22
69,52:7
69,53:7
69,54:22
69,55:22
69,62:22
69,63:7
69,64:1
69,65:24
69,66:24
69,67:24
69,70:10
70,12:3
70,14:3
70,17:3
70,19:3
70,21:8
70,23:8
70,33:8
70,35:12
70,42:14
70,43:12
70,44:12
70,45:12
70,46:12
70,50:12
70,51:12
70,54:12
70,55:12
70,62:12
70,65:14
70,66:14
70,67:14

<end>

<optimal SALBP-1 value>
16


<rand seed>
467321153

